
(set-logic ALL) 

(declare-datatype MyList ((Nil) (Cons (head Real) (tail MyList)) )) 
(declare-fun l0 () MyList) 
(declare-fun l1 () MyList) 
(declare-fun l2 () MyList) 
(declare-fun l3 () MyList) 
(declare-fun i0 () Real) 
(declare-fun i1 () Real) 
(assert (and (= l0 Nil) (= l0 l2) (= l0 Nil) (is-Nil Nil)) )
(assert (or (is-Cons Nil) (= l0 Nil) (= l1 Nil) (= l0 Nil)) )
(assert (is-Nil Nil) )
(assert (and (= l1 Nil) (is-Cons Nil) (is-Nil Nil) (= l1 l1)) )
(assert (is-Cons Nil) )
(assert (is-Cons l2) )
(assert (is-Cons Nil) )
(assert (or (is-Cons Nil) (is-Cons Nil) (is-Nil Nil) (= l3 Nil)) )
(check-sat)
